p edge 159 3782
e 1 2
e 1 3
e 1 4
e 1 5
e 1 6
e 1 7
e 1 8
e 1 9
e 1 10
e 1 11
e 1 12
e 1 13
e 1 14
e 1 15
e 1 16
e 1 33
e 1 34
e 1 35
e 1 36
e 1 37
e 1 38
e 1 39
e 1 40
e 1 41
e 1 42
e 1 43
e 1 44
e 1 45
e 1 46
e 1 47
e 1 48
e 1 49
e 1 50
e 1 51
e 1 52
e 1 53
e 1 54
e 1 55
e 1 56
e 1 57
e 1 58
e 1 59
e 1 60
e 1 61
e 1 62
e 1 63
e 1 64
e 1 65
e 1 66
e 1 67
e 1 68
e 1 69
e 1 70
e 1 71
e 1 72
e 1 73
e 1 74
e 1 75
e 1 76
e 1 77
e 1 78
e 1 79
e 1 80
e 1 81
e 1 82
e 1 83
e 1 84
e 1 85
e 1 86
e 1 87
e 1 88
e 1 89
e 1 90
e 1 91
e 1 92
e 1 93
e 1 94
e 1 95
e 1 96
e 1 97
e 1 98
e 1 99
e 1 100
e 1 101
e 1 102
e 1 103
e 1 104
e 1 105
e 1 106
e 1 107
e 1 108
e 1 109
e 1 110
e 1 111
e 1 112
e 1 113
e 1 114
e 1 115
e 1 116
e 1 117
e 1 118
e 1 119
e 1 120
e 1 121
e 1 122
e 1 123
e 1 124
e 1 125
e 1 126
e 1 127
e 1 128
e 1 129
e 1 130
e 1 131
e 1 132
e 1 133
e 1 134
e 1 135
e 1 136
e 1 137
e 1 138
e 1 139
e 1 140
e 1 141
e 1 142
e 1 143
e 1 144
e 1 145
e 1 146
e 1 147
e 1 148
e 1 149
e 1 150
e 1 151
e 1 152
e 1 153
e 1 154
e 1 155
e 1 156
e 1 157
e 1 158
e 1 159
e 2 3
e 2 4
e 2 5
e 2 6
e 2 7
e 2 8
e 2 9
e 2 10
e 2 11
e 2 12
e 2 13
e 2 14
e 2 15
e 2 16
e 2 33
e 2 34
e 2 35
e 2 36
e 2 37
e 2 38
e 2 39
e 2 40
e 2 41
e 2 42
e 2 43
e 2 44
e 2 45
e 2 46
e 2 47
e 2 48
e 2 49
e 2 50
e 2 51
e 2 52
e 2 53
e 2 54
e 2 55
e 2 56
e 2 57
e 2 58
e 2 59
e 2 60
e 2 61
e 2 62
e 2 63
e 2 64
e 2 65
e 2 66
e 2 67
e 2 68
e 2 69
e 2 70
e 2 71
e 2 72
e 2 73
e 2 74
e 2 75
e 2 76
e 2 77
e 2 78
e 2 79
e 2 80
e 2 81
e 2 82
e 2 83
e 2 84
e 2 85
e 2 86
e 2 87
e 2 88
e 2 89
e 2 90
e 2 91
e 2 92
e 2 93
e 2 94
e 2 95
e 2 96
e 2 97
e 2 98
e 2 99
e 2 100
e 2 101
e 2 102
e 2 103
e 2 104
e 2 105
e 2 106
e 2 107
e 2 108
e 2 109
e 2 110
e 2 111
e 2 112
e 2 113
e 2 114
e 2 115
e 2 116
e 2 117
e 2 118
e 2 119
e 2 120
e 2 121
e 2 122
e 2 123
e 2 124
e 2 125
e 2 126
e 2 127
e 2 128
e 2 129
e 2 130
e 2 131
e 2 132
e 2 133
e 2 134
e 2 135
e 2 136
e 2 137
e 2 138
e 2 139
e 2 140
e 2 141
e 2 142
e 2 143
e 2 144
e 2 145
e 2 146
e 2 147
e 2 148
e 2 149
e 2 150
e 2 151
e 2 152
e 2 153
e 2 154
e 2 155
e 2 156
e 2 157
e 2 158
e 2 159
e 3 4
e 3 5
e 3 6
e 3 7
e 3 8
e 3 9
e 3 10
e 3 11
e 3 12
e 3 13
e 3 14
e 3 15
e 3 16
e 3 33
e 3 34
e 3 35
e 3 36
e 3 37
e 3 38
e 3 39
e 3 40
e 3 41
e 3 42
e 3 43
e 3 44
e 3 45
e 3 46
e 3 47
e 3 48
e 3 49
e 3 50
e 3 51
e 3 52
e 3 53
e 3 54
e 3 55
e 3 56
e 3 57
e 3 58
e 3 59
e 3 60
e 3 61
e 3 62
e 3 63
e 3 64
e 3 65
e 3 66
e 3 67
e 3 68
e 3 69
e 3 70
e 3 71
e 3 72
e 3 73
e 3 74
e 3 75
e 3 76
e 3 77
e 3 78
e 3 79
e 3 80
e 3 81
e 3 82
e 3 83
e 3 84
e 3 85
e 3 86
e 3 87
e 3 88
e 3 89
e 3 90
e 3 91
e 3 92
e 3 93
e 3 94
e 3 95
e 3 96
e 3 97
e 3 98
e 3 99
e 3 100
e 3 101
e 3 102
e 3 103
e 3 104
e 3 105
e 3 106
e 3 107
e 3 108
e 3 109
e 3 110
e 3 111
e 3 112
e 3 113
e 3 114
e 3 115
e 3 116
e 3 117
e 3 118
e 3 119
e 3 120
e 3 121
e 3 122
e 3 123
e 3 124
e 3 125
e 3 126
e 3 127
e 3 128
e 3 129
e 3 130
e 3 131
e 3 132
e 3 133
e 3 134
e 3 135
e 3 136
e 3 137
e 3 138
e 3 139
e 3 140
e 3 141
e 3 142
e 3 143
e 3 144
e 3 145
e 3 146
e 3 147
e 3 148
e 3 149
e 3 150
e 3 151
e 3 152
e 3 153
e 3 154
e 3 155
e 3 156
e 3 157
e 3 158
e 3 159
e 4 5
e 4 6
e 4 7
e 4 8
e 4 9
e 4 10
e 4 11
e 4 12
e 4 13
e 4 14
e 4 15
e 4 16
e 4 55
e 4 56
e 4 57
e 4 58
e 4 59
e 4 60
e 4 63
e 4 64
e 4 65
e 4 71
e 4 72
e 4 73
e 4 74
e 4 75
e 4 76
e 4 78
e 4 79
e 4 83
e 4 84
e 4 85
e 4 86
e 4 87
e 4 88
e 4 89
e 4 90
e 4 91
e 4 108
e 4 109
e 4 110
e 4 111
e 5 6
e 5 7
e 5 8
e 5 9
e 5 10
e 5 11
e 5 12
e 5 13
e 5 14
e 5 15
e 5 16
e 5 55
e 5 56
e 5 57
e 5 58
e 5 59
e 5 60
e 5 63
e 5 64
e 5 65
e 5 71
e 5 72
e 5 73
e 5 74
e 5 75
e 5 76
e 5 78
e 5 79
e 5 83
e 5 84
e 5 85
e 5 86
e 5 87
e 5 88
e 5 89
e 5 90
e 5 91
e 5 108
e 5 109
e 5 110
e 5 111
e 6 7
e 6 8
e 6 9
e 6 10
e 6 11
e 6 12
e 6 13
e 6 14
e 6 15
e 6 16
e 6 55
e 6 56
e 6 57
e 6 58
e 6 59
e 6 60
e 6 63
e 6 64
e 6 65
e 6 71
e 6 72
e 6 73
e 6 74
e 6 75
e 6 76
e 6 78
e 6 79
e 6 83
e 6 84
e 6 85
e 6 86
e 6 87
e 6 88
e 6 89
e 6 90
e 6 91
e 6 108
e 6 109
e 6 110
e 6 111
e 7 8
e 7 9
e 7 10
e 7 11
e 7 12
e 7 13
e 7 14
e 7 15
e 7 16
e 7 55
e 7 56
e 7 57
e 7 58
e 7 59
e 7 60
e 7 63
e 7 64
e 7 65
e 7 71
e 7 72
e 7 73
e 7 74
e 7 75
e 7 76
e 7 78
e 7 79
e 7 83
e 7 84
e 7 85
e 7 86
e 7 87
e 7 88
e 7 89
e 7 90
e 7 91
e 7 108
e 7 109
e 7 110
e 7 111
e 8 9
e 8 10
e 8 11
e 8 12
e 8 13
e 8 14
e 8 15
e 8 16
e 8 55
e 8 56
e 8 57
e 8 58
e 8 59
e 8 60
e 8 63
e 8 64
e 8 65
e 8 71
e 8 72
e 8 73
e 8 74
e 8 75
e 8 76
e 8 78
e 8 79
e 8 83
e 8 84
e 8 85
e 8 86
e 8 87
e 8 88
e 8 89
e 8 90
e 8 91
e 8 108
e 8 109
e 8 110
e 8 111
e 9 10
e 9 11
e 9 12
e 9 13
e 9 14
e 9 15
e 9 16
e 9 55
e 9 56
e 9 57
e 9 58
e 9 59
e 9 60
e 9 63
e 9 64
e 9 65
e 9 71
e 9 72
e 9 73
e 9 74
e 9 75
e 9 76
e 9 78
e 9 79
e 9 83
e 9 84
e 9 85
e 9 86
e 9 87
e 9 88
e 9 89
e 9 90
e 9 91
e 9 108
e 9 109
e 9 110
e 9 111
e 10 11
e 10 12
e 10 13
e 10 14
e 10 15
e 10 16
e 10 55
e 10 56
e 10 57
e 10 58
e 10 59
e 10 60
e 10 63
e 10 64
e 10 65
e 10 71
e 10 72
e 10 73
e 10 74
e 10 75
e 10 76
e 10 78
e 10 79
e 10 83
e 10 84
e 10 85
e 10 86
e 10 87
e 10 88
e 10 89
e 10 90
e 10 91
e 10 108
e 10 109
e 10 110
e 10 111
e 11 12
e 11 13
e 11 14
e 11 15
e 11 16
e 11 41
e 11 48
e 11 55
e 11 56
e 11 57
e 11 58
e 11 59
e 11 60
e 11 61
e 11 62
e 11 63
e 11 64
e 11 65
e 11 71
e 11 72
e 11 73
e 11 74
e 11 75
e 11 76
e 11 78
e 11 79
e 11 80
e 11 83
e 11 84
e 11 85
e 11 86
e 11 87
e 11 88
e 11 89
e 11 90
e 11 91
e 11 108
e 11 109
e 11 110
e 11 111
e 12 13
e 12 14
e 12 15
e 12 16
e 12 41
e 12 48
e 12 55
e 12 56
e 12 57
e 12 58
e 12 59
e 12 60
e 12 61
e 12 62
e 12 63
e 12 64
e 12 65
e 12 71
e 12 72
e 12 73
e 12 74
e 12 75
e 12 76
e 12 78
e 12 79
e 12 80
e 12 83
e 12 84
e 12 85
e 12 86
e 12 87
e 12 88
e 12 89
e 12 90
e 12 91
e 12 108
e 12 109
e 12 110
e 12 111
e 13 14
e 13 15
e 13 16
e 13 41
e 13 48
e 13 55
e 13 56
e 13 57
e 13 58
e 13 59
e 13 60
e 13 61
e 13 62
e 13 63
e 13 64
e 13 65
e 13 71
e 13 72
e 13 73
e 13 74
e 13 75
e 13 76
e 13 78
e 13 79
e 13 80
e 13 83
e 13 84
e 13 85
e 13 86
e 13 87
e 13 88
e 13 89
e 13 90
e 13 91
e 13 108
e 13 109
e 13 110
e 13 111
e 14 15
e 14 16
e 14 41
e 14 48
e 14 55
e 14 56
e 14 57
e 14 58
e 14 59
e 14 60
e 14 61
e 14 62
e 14 63
e 14 64
e 14 65
e 14 71
e 14 72
e 14 73
e 14 74
e 14 75
e 14 76
e 14 78
e 14 79
e 14 80
e 14 83
e 14 84
e 14 85
e 14 86
e 14 87
e 14 88
e 14 89
e 14 90
e 14 91
e 14 108
e 14 109
e 14 110
e 14 111
e 15 16
e 15 41
e 15 48
e 15 55
e 15 56
e 15 57
e 15 58
e 15 59
e 15 60
e 15 61
e 15 62
e 15 63
e 15 64
e 15 65
e 15 71
e 15 72
e 15 73
e 15 74
e 15 75
e 15 76
e 15 78
e 15 79
e 15 80
e 15 83
e 15 84
e 15 85
e 15 86
e 15 87
e 15 88
e 15 89
e 15 90
e 15 91
e 15 108
e 15 109
e 15 110
e 15 111
e 16 41
e 16 48
e 16 55
e 16 56
e 16 57
e 16 58
e 16 59
e 16 60
e 16 61
e 16 62
e 16 63
e 16 64
e 16 65
e 16 71
e 16 72
e 16 73
e 16 74
e 16 75
e 16 76
e 16 78
e 16 79
e 16 80
e 16 83
e 16 84
e 16 85
e 16 86
e 16 87
e 16 88
e 16 89
e 16 90
e 16 91
e 16 108
e 16 109
e 16 110
e 16 111
e 17 18
e 17 19
e 17 20
e 17 21
e 17 22
e 17 23
e 17 24
e 17 25
e 17 26
e 17 27
e 17 28
e 17 29
e 17 30
e 17 31
e 17 32
e 17 33
e 17 34
e 17 35
e 17 36
e 17 37
e 17 38
e 17 39
e 17 40
e 17 41
e 17 42
e 17 43
e 17 44
e 17 45
e 17 46
e 17 47
e 17 48
e 17 49
e 17 50
e 17 51
e 17 52
e 17 53
e 17 54
e 17 55
e 17 56
e 17 57
e 17 58
e 17 59
e 17 60
e 17 61
e 17 62
e 17 63
e 17 64
e 17 65
e 17 66
e 17 67
e 17 68
e 17 69
e 17 70
e 17 71
e 17 72
e 17 73
e 17 74
e 17 75
e 17 76
e 17 77
e 17 78
e 17 79
e 17 80
e 17 81
e 17 82
e 17 83
e 17 84
e 17 85
e 17 86
e 17 87
e 17 88
e 17 89
e 17 90
e 17 91
e 17 92
e 17 93
e 17 94
e 17 95
e 17 96
e 17 97
e 17 98
e 17 99
e 17 100
e 17 101
e 17 102
e 17 103
e 17 104
e 17 105
e 17 106
e 17 107
e 17 108
e 17 109
e 17 110
e 17 111
e 17 112
e 17 113
e 17 114
e 17 115
e 17 116
e 17 117
e 17 118
e 17 119
e 17 120
e 17 121
e 17 122
e 17 123
e 17 124
e 17 125
e 17 126
e 17 127
e 17 128
e 17 129
e 17 130
e 17 131
e 17 132
e 17 133
e 17 134
e 17 135
e 17 136
e 17 137
e 17 138
e 17 139
e 17 140
e 17 141
e 17 142
e 17 143
e 17 144
e 17 145
e 17 146
e 17 147
e 17 148
e 17 149
e 17 150
e 17 151
e 17 152
e 17 153
e 17 154
e 17 155
e 17 156
e 17 157
e 17 158
e 17 159
e 18 19
e 18 20
e 18 21
e 18 22
e 18 23
e 18 24
e 18 25
e 18 26
e 18 27
e 18 28
e 18 29
e 18 30
e 18 31
e 18 32
e 18 33
e 18 34
e 18 35
e 18 36
e 18 37
e 18 38
e 18 39
e 18 40
e 18 41
e 18 42
e 18 43
e 18 44
e 18 45
e 18 46
e 18 47
e 18 48
e 18 49
e 18 50
e 18 51
e 18 52
e 18 53
e 18 54
e 18 61
e 18 62
e 18 66
e 18 67
e 18 68
e 18 69
e 18 70
e 18 77
e 18 80
e 18 81
e 18 82
e 18 92
e 18 93
e 18 94
e 18 95
e 18 96
e 18 97
e 18 98
e 18 99
e 18 100
e 18 101
e 18 102
e 18 103
e 18 104
e 18 105
e 18 106
e 18 107
e 18 112
e 18 113
e 18 114
e 18 115
e 18 116
e 18 117
e 18 118
e 18 119
e 18 120
e 18 121
e 18 122
e 18 123
e 18 124
e 18 125
e 18 126
e 18 127
e 18 128
e 18 129
e 18 130
e 18 131
e 18 132
e 18 133
e 18 134
e 18 135
e 18 136
e 18 137
e 18 138
e 18 139
e 18 140
e 18 141
e 18 142
e 18 143
e 18 144
e 18 145
e 18 146
e 18 147
e 18 148
e 18 149
e 18 150
e 18 151
e 18 152
e 18 153
e 18 154
e 18 155
e 18 156
e 18 157
e 18 158
e 18 159
e 19 20
e 19 21
e 19 22
e 19 23
e 19 24
e 19 25
e 19 26
e 19 27
e 19 28
e 19 29
e 19 30
e 19 31
e 19 32
e 19 33
e 19 34
e 19 35
e 19 36
e 19 37
e 19 38
e 19 39
e 19 40
e 19 41
e 19 42
e 19 43
e 19 44
e 19 45
e 19 46
e 19 47
e 19 48
e 19 49
e 19 50
e 19 51
e 19 52
e 19 53
e 19 54
e 19 61
e 19 62
e 19 66
e 19 67
e 19 68
e 19 69
e 19 70
e 19 77
e 19 80
e 19 81
e 19 82
e 19 92
e 19 93
e 19 94
e 19 95
e 19 96
e 19 97
e 19 98
e 19 99
e 19 100
e 19 101
e 19 102
e 19 103
e 19 104
e 19 105
e 19 106
e 19 107
e 19 111
e 19 112
e 19 113
e 19 114
e 19 115
e 19 116
e 19 117
e 19 118
e 19 119
e 19 120
e 19 121
e 19 122
e 19 123
e 19 124
e 19 125
e 19 126
e 19 127
e 19 128
e 19 129
e 19 130
e 19 131
e 19 132
e 19 133
e 19 134
e 19 135
e 19 136
e 19 137
e 19 138
e 19 139
e 19 140
e 19 141
e 19 142
e 19 143
e 19 144
e 19 145
e 19 146
e 19 147
e 19 148
e 19 149
e 19 150
e 19 151
e 19 152
e 19 153
e 19 154
e 19 155
e 19 156
e 19 157
e 19 158
e 19 159
e 20 21
e 20 22
e 20 23
e 20 24
e 20 25
e 20 26
e 20 27
e 20 28
e 20 29
e 20 30
e 20 31
e 20 32
e 20 33
e 20 34
e 20 35
e 20 36
e 20 37
e 20 38
e 20 39
e 20 40
e 20 41
e 20 42
e 20 43
e 20 44
e 20 45
e 20 46
e 20 47
e 20 48
e 20 49
e 20 50
e 20 51
e 20 52
e 20 53
e 20 54
e 20 61
e 20 62
e 20 66
e 20 67
e 20 68
e 20 69
e 20 70
e 20 77
e 20 80
e 20 81
e 20 82
e 20 92
e 20 93
e 20 94
e 20 95
e 20 96
e 20 97
e 20 98
e 20 99
e 20 100
e 20 101
e 20 102
e 20 103
e 20 104
e 20 105
e 20 106
e 20 107
e 20 110
e 20 111
e 20 112
e 20 113
e 20 114
e 20 115
e 20 116
e 20 117
e 20 118
e 20 119
e 20 120
e 20 121
e 20 122
e 20 123
e 20 124
e 20 125
e 20 126
e 20 127
e 20 128
e 20 129
e 20 130
e 20 131
e 20 132
e 20 133
e 20 134
e 20 135
e 20 136
e 20 137
e 20 138
e 20 139
e 20 140
e 20 141
e 20 142
e 20 143
e 20 144
e 20 145
e 20 146
e 20 147
e 20 148
e 20 149
e 20 150
e 20 151
e 20 152
e 20 153
e 20 154
e 20 155
e 20 156
e 20 157
e 20 158
e 20 159
e 21 22
e 21 23
e 21 24
e 21 25
e 21 26
e 21 27
e 21 28
e 21 29
e 21 30
e 21 31
e 21 32
e 21 33
e 21 34
e 21 35
e 21 36
e 21 37
e 21 38
e 21 39
e 21 40
e 21 41
e 21 42
e 21 43
e 21 44
e 21 45
e 21 46
e 21 47
e 21 48
e 21 49
e 21 50
e 21 51
e 21 52
e 21 53
e 21 54
e 21 61
e 21 62
e 21 66
e 21 67
e 21 68
e 21 69
e 21 70
e 21 77
e 21 80
e 21 81
e 21 82
e 21 92
e 21 93
e 21 94
e 21 95
e 21 96
e 21 97
e 21 98
e 21 99
e 21 100
e 21 101
e 21 102
e 21 103
e 21 104
e 21 105
e 21 106
e 21 107
e 21 109
e 21 110
e 21 111
e 21 112
e 21 113
e 21 114
e 21 115
e 21 116
e 21 117
e 21 118
e 21 119
e 21 120
e 21 121
e 21 122
e 21 123
e 21 124
e 21 125
e 21 126
e 21 127
e 21 128
e 21 129
e 21 130
e 21 131
e 21 132
e 21 133
e 21 134
e 21 135
e 21 136
e 21 137
e 21 138
e 21 139
e 21 140
e 21 141
e 21 142
e 21 143
e 21 144
e 21 145
e 21 146
e 21 147
e 21 148
e 21 149
e 21 150
e 21 151
e 21 152
e 21 153
e 21 154
e 21 155
e 21 156
e 21 157
e 21 158
e 21 159
e 22 23
e 22 24
e 22 25
e 22 26
e 22 27
e 22 28
e 22 29
e 22 30
e 22 31
e 22 32
e 22 33
e 22 34
e 22 35
e 22 36
e 22 37
e 22 38
e 22 39
e 22 40
e 22 41
e 22 42
e 22 43
e 22 44
e 22 45
e 22 46
e 22 47
e 22 48
e 22 49
e 22 50
e 22 51
e 22 52
e 22 53
e 22 54
e 22 61
e 22 62
e 22 66
e 22 67
e 22 68
e 22 69
e 22 70
e 22 77
e 22 80
e 22 81
e 22 82
e 22 92
e 22 93
e 22 94
e 22 95
e 22 96
e 22 97
e 22 98
e 22 99
e 22 100
e 22 101
e 22 102
e 22 103
e 22 104
e 22 105
e 22 106
e 22 107
e 22 108
e 22 109
e 22 110
e 22 111
e 22 112
e 22 113
e 22 114
e 22 115
e 22 116
e 22 117
e 22 118
e 22 119
e 22 120
e 22 121
e 22 122
e 22 123
e 22 124
e 22 125
e 22 126
e 22 127
e 22 128
e 22 129
e 22 130
e 22 131
e 22 132
e 22 133
e 22 134
e 22 135
e 22 136
e 22 137
e 22 138
e 22 139
e 22 140
e 22 141
e 22 142
e 22 143
e 22 144
e 22 145
e 22 146
e 22 147
e 22 148
e 22 149
e 22 150
e 22 151
e 22 152
e 22 153
e 22 154
e 22 155
e 22 156
e 22 157
e 22 158
e 22 159
e 23 24
e 23 25
e 23 26
e 23 27
e 23 28
e 23 29
e 23 30
e 23 31
e 23 32
e 23 33
e 23 34
e 23 35
e 23 36
e 23 37
e 23 38
e 23 39
e 23 40
e 23 41
e 23 42
e 23 43
e 23 44
e 23 45
e 23 46
e 23 47
e 23 48
e 23 49
e 23 50
e 23 51
e 23 52
e 23 53
e 23 54
e 23 55
e 23 61
e 23 62
e 23 66
e 23 67
e 23 68
e 23 69
e 23 70
e 23 77
e 23 80
e 23 81
e 23 82
e 23 92
e 23 93
e 23 94
e 23 95
e 23 96
e 23 97
e 23 98
e 23 99
e 23 100
e 23 101
e 23 102
e 23 103
e 23 104
e 23 105
e 23 106
e 23 107
e 23 108
e 23 109
e 23 110
e 23 111
e 23 112
e 23 113
e 23 114
e 23 115
e 23 116
e 23 117
e 23 118
e 23 119
e 23 120
e 23 121
e 23 122
e 23 123
e 23 124
e 23 125
e 23 126
e 23 127
e 23 128
e 23 129
e 23 130
e 23 131
e 23 132
e 23 133
e 23 134
e 23 135
e 23 136
e 23 137
e 23 138
e 23 139
e 23 140
e 23 141
e 23 142
e 23 143
e 23 144
e 23 145
e 23 146
e 23 147
e 23 148
e 23 149
e 23 150
e 23 151
e 23 152
e 23 153
e 23 154
e 23 155
e 23 156
e 23 157
e 23 158
e 23 159
e 24 25
e 24 26
e 24 27
e 24 28
e 24 29
e 24 30
e 24 31
e 24 32
e 24 33
e 24 34
e 24 35
e 24 36
e 24 37
e 24 38
e 24 39
e 24 40
e 24 41
e 24 42
e 24 43
e 24 44
e 24 45
e 24 46
e 24 47
e 24 48
e 24 49
e 24 50
e 24 51
e 24 52
e 24 53
e 24 54
e 24 55
e 24 56
e 24 61
e 24 62
e 24 66
e 24 67
e 24 68
e 24 69
e 24 70
e 24 77
e 24 80
e 24 81
e 24 82
e 24 92
e 24 93
e 24 94
e 24 95
e 24 96
e 24 97
e 24 98
e 24 99
e 24 100
e 24 101
e 24 102
e 24 103
e 24 104
e 24 105
e 24 106
e 24 107
e 24 108
e 24 109
e 24 110
e 24 111
e 24 112
e 24 113
e 24 114
e 24 115
e 24 116
e 24 117
e 24 118
e 24 119
e 24 120
e 24 121
e 24 122
e 24 123
e 24 124
e 24 125
e 24 126
e 24 127
e 24 128
e 24 129
e 24 130
e 24 131
e 24 132
e 24 133
e 24 134
e 24 135
e 24 136
e 24 137
e 24 138
e 24 139
e 24 140
e 24 141
e 24 142
e 24 143
e 24 144
e 24 145
e 24 146
e 24 147
e 24 148
e 24 149
e 24 150
e 24 151
e 24 152
e 24 153
e 24 154
e 24 155
e 24 156
e 24 157
e 24 158
e 24 159
e 25 26
e 25 27
e 25 28
e 25 29
e 25 30
e 25 31
e 25 32
e 25 33
e 25 34
e 25 35
e 25 36
e 25 37
e 25 38
e 25 39
e 25 40
e 25 41
e 25 42
e 25 43
e 25 44
e 25 45
e 25 46
e 25 47
e 25 48
e 25 49
e 25 50
e 25 51
e 25 52
e 25 53
e 25 54
e 25 55
e 25 56
e 25 57
e 25 61
e 25 62
e 25 66
e 25 67
e 25 68
e 25 69
e 25 70
e 25 77
e 25 80
e 25 81
e 25 82
e 25 92
e 25 93
e 25 94
e 25 95
e 25 96
e 25 97
e 25 98
e 25 99
e 25 100
e 25 101
e 25 102
e 25 103
e 25 104
e 25 105
e 25 106
e 25 107
e 25 108
e 25 109
e 25 110
e 25 111
e 25 112
e 25 113
e 25 114
e 25 115
e 25 116
e 25 117
e 25 118
e 25 119
e 25 120
e 25 121
e 25 122
e 25 123
e 25 124
e 25 125
e 25 126
e 25 127
e 25 128
e 25 129
e 25 130
e 25 131
e 25 132
e 25 133
e 25 134
e 25 135
e 25 136
e 25 137
e 25 138
e 25 139
e 25 140
e 25 141
e 25 142
e 25 143
e 25 144
e 25 145
e 25 146
e 25 147
e 25 148
e 25 149
e 25 150
e 25 151
e 25 152
e 25 153
e 25 154
e 25 155
e 25 156
e 25 157
e 25 158
e 25 159
e 26 27
e 26 28
e 26 29
e 26 30
e 26 31
e 26 32
e 26 33
e 26 34
e 26 35
e 26 36
e 26 37
e 26 38
e 26 39
e 26 40
e 26 41
e 26 42
e 26 43
e 26 44
e 26 45
e 26 46
e 26 47
e 26 48
e 26 49
e 26 50
e 26 51
e 26 52
e 26 53
e 26 54
e 26 55
e 26 56
e 26 57
e 26 58
e 26 61
e 26 62
e 26 66
e 26 67
e 26 68
e 26 69
e 26 70
e 26 77
e 26 80
e 26 81
e 26 82
e 26 92
e 26 93
e 26 94
e 26 95
e 26 96
e 26 97
e 26 98
e 26 99
e 26 100
e 26 101
e 26 102
e 26 103
e 26 104
e 26 105
e 26 106
e 26 107
e 26 108
e 26 109
e 26 110
e 26 111
e 26 112
e 26 113
e 26 114
e 26 115
e 26 116
e 26 117
e 26 118
e 26 119
e 26 120
e 26 121
e 26 122
e 26 123
e 26 124
e 26 125
e 26 126
e 26 127
e 26 128
e 26 129
e 26 130
e 26 131
e 26 132
e 26 133
e 26 134
e 26 135
e 26 136
e 26 137
e 26 138
e 26 139
e 26 140
e 26 141
e 26 142
e 26 143
e 26 144
e 26 145
e 26 146
e 26 147
e 26 148
e 26 149
e 26 150
e 26 151
e 26 152
e 26 153
e 26 154
e 26 155
e 26 156
e 26 157
e 26 158
e 26 159
e 27 28
e 27 29
e 27 30
e 27 31
e 27 32
e 27 33
e 27 34
e 27 35
e 27 36
e 27 37
e 27 38
e 27 39
e 27 40
e 27 41
e 27 42
e 27 43
e 27 44
e 27 45
e 27 46
e 27 47
e 27 48
e 27 49
e 27 50
e 27 51
e 27 52
e 27 53
e 27 54
e 27 55
e 27 56
e 27 57
e 27 58
e 27 59
e 27 60
e 27 61
e 27 62
e 27 63
e 27 66
e 27 67
e 27 68
e 27 69
e 27 70
e 27 77
e 27 78
e 27 79
e 27 80
e 27 81
e 27 82
e 27 92
e 27 93
e 27 94
e 27 95
e 27 96
e 27 97
e 27 98
e 27 99
e 27 100
e 27 101
e 27 102
e 27 103
e 27 104
e 27 105
e 27 106
e 27 107
e 27 112
e 27 113
e 27 114
e 27 115
e 27 116
e 27 117
e 27 118
e 27 119
e 27 120
e 27 121
e 27 122
e 27 123
e 27 124
e 27 125
e 27 126
e 27 127
e 27 128
e 27 129
e 27 130
e 27 131
e 27 132
e 27 133
e 27 134
e 27 135
e 27 136
e 27 137
e 27 138
e 27 139
e 27 140
e 27 141
e 27 142
e 27 143
e 27 144
e 27 145
e 27 146
e 27 147
e 27 148
e 27 149
e 27 150
e 27 151
e 27 152
e 27 153
e 27 154
e 27 155
e 27 156
e 27 157
e 27 158
e 27 159
e 28 29
e 28 30
e 28 31
e 28 32
e 28 33
e 28 34
e 28 35
e 28 36
e 28 37
e 28 38
e 28 39
e 28 40
e 28 41
e 28 42
e 28 43
e 28 44
e 28 45
e 28 46
e 28 47
e 28 48
e 28 49
e 28 50
e 28 51
e 28 52
e 28 53
e 28 54
e 28 55
e 28 56
e 28 57
e 28 58
e 28 59
e 28 60
e 28 61
e 28 62
e 28 63
e 28 66
e 28 67
e 28 68
e 28 69
e 28 70
e 28 77
e 28 78
e 28 79
e 28 80
e 28 81
e 28 82
e 28 92
e 28 93
e 28 94
e 28 95
e 28 96
e 28 97
e 28 98
e 28 99
e 28 100
e 28 101
e 28 102
e 28 103
e 28 104
e 28 105
e 28 106
e 28 107
e 28 112
e 28 113
e 28 114
e 28 115
e 28 116
e 28 117
e 28 118
e 28 119
e 28 120
e 28 121
e 28 122
e 28 123
e 28 124
e 28 125
e 28 126
e 28 127
e 28 128
e 28 129
e 28 130
e 28 131
e 28 132
e 28 133
e 28 134
e 28 135
e 28 136
e 28 137
e 28 138
e 28 139
e 28 140
e 28 141
e 28 142
e 28 143
e 28 144
e 28 145
e 28 146
e 28 147
e 28 148
e 28 149
e 28 150
e 28 151
e 28 152
e 28 153
e 28 154
e 28 155
e 28 156
e 28 157
e 28 158
e 28 159
e 29 30
e 29 31
e 29 32
e 29 33
e 29 34
e 29 35
e 29 36
e 29 37
e 29 38
e 29 39
e 29 40
e 29 41
e 29 42
e 29 43
e 29 44
e 29 45
e 29 46
e 29 47
e 29 48
e 29 49
e 29 50
e 29 51
e 29 52
e 29 53
e 29 54
e 29 55
e 29 56
e 29 57
e 29 58
e 29 59
e 29 60
e 29 61
e 29 62
e 29 63
e 29 66
e 29 67
e 29 68
e 29 69
e 29 70
e 29 77
e 29 78
e 29 79
e 29 80
e 29 81
e 29 82
e 29 92
e 29 93
e 29 94
e 29 95
e 29 96
e 29 97
e 29 98
e 29 99
e 29 100
e 29 101
e 29 102
e 29 103
e 29 104
e 29 105
e 29 106
e 29 107
e 29 112
e 29 113
e 29 114
e 29 115
e 29 116
e 29 117
e 29 118
e 29 119
e 29 120
e 29 121
e 29 122
e 29 123
e 29 124
e 29 125
e 29 126
e 29 127
e 29 128
e 29 129
e 29 130
e 29 131
e 29 132
e 29 133
e 29 134
e 29 135
e 29 136
e 29 137
e 29 138
e 29 139
e 29 140
e 29 141
e 29 142
e 29 143
e 29 144
e 29 145
e 29 146
e 29 147
e 29 148
e 29 149
e 29 150
e 29 151
e 29 152
e 29 153
e 29 154
e 29 155
e 29 156
e 29 157
e 29 158
e 29 159
e 30 31
e 30 32
e 30 33
e 30 34
e 30 35
e 30 36
e 30 37
e 30 38
e 30 39
e 30 40
e 30 41
e 30 42
e 30 43
e 30 44
e 30 45
e 30 46
e 30 47
e 30 48
e 30 49
e 30 50
e 30 51
e 30 52
e 30 53
e 30 54
e 30 55
e 30 56
e 30 57
e 30 58
e 30 59
e 30 60
e 30 61
e 30 62
e 30 63
e 30 66
e 30 67
e 30 68
e 30 69
e 30 70
e 30 77
e 30 78
e 30 79
e 30 80
e 30 81
e 30 82
e 30 92
e 30 93
e 30 94
e 30 95
e 30 96
e 30 97
e 30 98
e 30 99
e 30 100
e 30 101
e 30 102
e 30 103
e 30 104
e 30 105
e 30 106
e 30 107
e 30 112
e 30 113
e 30 114
e 30 115
e 30 116
e 30 117
e 30 118
e 30 119
e 30 120
e 30 121
e 30 122
e 30 123
e 30 124
e 30 125
e 30 126
e 30 127
e 30 128
e 30 129
e 30 130
e 30 131
e 30 132
e 30 133
e 30 134
e 30 135
e 30 136
e 30 137
e 30 138
e 30 139
e 30 140
e 30 141
e 30 142
e 30 143
e 30 144
e 30 145
e 30 146
e 30 147
e 30 148
e 30 149
e 30 150
e 30 151
e 30 152
e 30 153
e 30 154
e 30 155
e 30 156
e 30 157
e 30 158
e 30 159
e 31 32
e 31 33
e 31 34
e 31 35
e 31 36
e 31 37
e 31 38
e 31 39
e 31 40
e 31 41
e 31 42
e 31 43
e 31 44
e 31 45
e 31 46
e 31 47
e 31 48
e 31 49
e 31 50
e 31 51
e 31 52
e 31 53
e 31 54
e 31 55
e 31 56
e 31 57
e 31 58
e 31 59
e 31 60
e 31 61
e 31 62
e 31 63
e 31 66
e 31 67
e 31 68
e 31 69
e 31 70
e 31 77
e 31 78
e 31 79
e 31 80
e 31 81
e 31 82
e 31 92
e 31 93
e 31 94
e 31 95
e 31 96
e 31 97
e 31 98
e 31 99
e 31 100
e 31 101
e 31 102
e 31 103
e 31 104
e 31 105
e 31 106
e 31 107
e 31 112
e 31 113
e 31 114
e 31 115
e 31 116
e 31 117
e 31 118
e 31 119
e 31 120
e 31 121
e 31 122
e 31 123
e 31 124
e 31 125
e 31 126
e 31 127
e 31 128
e 31 129
e 31 130
e 31 131
e 31 132
e 31 133
e 31 134
e 31 135
e 31 136
e 31 137
e 31 138
e 31 139
e 31 140
e 31 141
e 31 142
e 31 143
e 31 144
e 31 145
e 31 146
e 31 147
e 31 148
e 31 149
e 31 150
e 31 151
e 31 152
e 31 153
e 31 154
e 31 155
e 31 156
e 31 157
e 31 158
e 31 159
e 32 33
e 32 34
e 32 35
e 32 36
e 32 37
e 32 38
e 32 39
e 32 40
e 32 41
e 32 42
e 32 43
e 32 44
e 32 45
e 32 46
e 32 47
e 32 48
e 32 49
e 32 50
e 32 51
e 32 52
e 32 53
e 32 54
e 32 55
e 32 56
e 32 57
e 32 58
e 32 59
e 32 60
e 32 61
e 32 62
e 32 63
e 32 66
e 32 67
e 32 68
e 32 69
e 32 70
e 32 77
e 32 78
e 32 79
e 32 80
e 32 81
e 32 82
e 32 92
e 32 93
e 32 94
e 32 95
e 32 96
e 32 97
e 32 98
e 32 99
e 32 100
e 32 101
e 32 102
e 32 103
e 32 104
e 32 105
e 32 106
e 32 107
e 32 112
e 32 113
e 32 114
e 32 115
e 32 116
e 32 117
e 32 118
e 32 119
e 32 120
e 32 121
e 32 122
e 32 123
e 32 124
e 32 125
e 32 126
e 32 127
e 32 128
e 32 129
e 32 130
e 32 131
e 32 132
e 32 133
e 32 134
e 32 135
e 32 136
e 32 137
e 32 138
e 32 139
e 32 140
e 32 141
e 32 142
e 32 143
e 32 144
e 32 145
e 32 146
e 32 147
e 32 148
e 32 149
e 32 150
e 32 151
e 32 152
e 32 153
e 32 154
e 32 155
e 32 156
e 32 157
e 32 158
e 32 159
e 33 34
e 33 39
e 33 40
e 33 41
e 33 61
e 33 62
e 33 66
e 33 67
e 33 68
e 33 69
e 33 70
e 33 77
e 34 39
e 34 40
e 34 41
e 34 61
e 34 62
e 34 66
e 34 67
e 34 68
e 34 69
e 34 70
e 34 77
e 35 36
e 35 37
e 35 41
e 35 48
e 35 49
e 35 50
e 35 61
e 35 62
e 35 80
e 35 130
e 35 131
e 35 132
e 35 133
e 35 134
e 35 135
e 35 136
e 35 137
e 35 138
e 35 139
e 35 140
e 35 141
e 35 142
e 35 143
e 35 144
e 35 145
e 35 146
e 35 147
e 35 148
e 35 149
e 35 150
e 35 151
e 35 152
e 35 153
e 36 41
e 36 48
e 36 50
e 36 61
e 36 62
e 36 80
e 36 130
e 36 131
e 36 140
e 36 141
e 36 142
e 36 143
e 36 144
e 36 145
e 36 146
e 36 147
e 36 148
e 36 149
e 36 150
e 36 151
e 36 152
e 36 153
e 37 41
e 37 48
e 37 61
e 37 62
e 37 80
e 37 130
e 37 131
e 37 132
e 37 133
e 37 134
e 38 41
e 38 45
e 38 46
e 38 61
e 38 62
e 38 80
e 38 154
e 38 155
e 38 156
e 38 157
e 38 158
e 38 159
e 39 40
e 39 41
e 39 61
e 39 62
e 39 66
e 39 67
e 39 68
e 39 69
e 39 70
e 39 77
e 40 41
e 40 61
e 40 62
e 40 66
e 40 67
e 40 68
e 40 69
e 40 70
e 40 77
e 41 42
e 41 43
e 41 44
e 41 45
e 41 46
e 41 47
e 41 48
e 41 49
e 41 50
e 41 51
e 41 52
e 41 53
e 41 54
e 41 61
e 41 62
e 41 66
e 41 67
e 41 68
e 41 69
e 41 70
e 41 77
e 41 80
e 41 81
e 41 82
e 41 92
e 41 93
e 41 94
e 41 95
e 41 96
e 41 97
e 41 98
e 41 99
e 41 100
e 41 101
e 41 102
e 41 103
e 41 104
e 41 105
e 41 106
e 41 107
e 41 112
e 41 113
e 41 114
e 41 115
e 41 116
e 41 117
e 41 118
e 41 119
e 41 120
e 41 121
e 41 122
e 41 123
e 41 124
e 41 125
e 41 126
e 41 127
e 41 128
e 41 129
e 41 130
e 41 131
e 41 132
e 41 133
e 41 134
e 41 135
e 41 136
e 41 137
e 41 138
e 41 139
e 41 140
e 41 141
e 41 142
e 41 143
e 41 144
e 41 145
e 41 146
e 41 147
e 41 148
e 41 149
e 41 150
e 41 151
e 41 152
e 41 153
e 41 154
e 41 155
e 41 156
e 41 157
e 41 158
e 41 159
e 42 43
e 42 44
e 42 61
e 42 62
e 42 80
e 42 81
e 42 82
e 42 92
e 42 93
e 42 94
e 42 95
e 42 96
e 42 97
e 43 44
e 43 61
e 43 62
e 43 80
e 43 81
e 43 82
e 43 92
e 43 93
e 43 94
e 43 95
e 43 96
e 43 97
e 44 61
e 44 62
e 44 80
e 44 81
e 44 92
e 44 94
e 44 95
e 44 96
e 44 97
e 45 46
e 45 61
e 45 62
e 45 80
e 45 154
e 45 155
e 45 156
e 45 157
e 45 158
e 45 159
e 46 61
e 46 62
e 46 80
e 46 154
e 46 155
e 46 156
e 46 157
e 46 158
e 46 159
e 47 48
e 47 61
e 47 62
e 47 80
e 47 98
e 47 99
e 47 100
e 47 101
e 47 105
e 47 106
e 47 107
e 48 49
e 48 50
e 48 61
e 48 62
e 48 80
e 48 98
e 48 99
e 48 100
e 48 101
e 48 102
e 48 103
e 48 104
e 48 105
e 48 106
e 48 107
e 48 130
e 48 131
e 48 132
e 48 133
e 48 134
e 48 135
e 48 136
e 48 137
e 48 138
e 48 139
e 48 140
e 48 141
e 48 142
e 48 143
e 48 144
e 48 145
e 48 146
e 48 147
e 48 148
e 48 149
e 48 150
e 48 151
e 48 152
e 48 153
e 49 61
e 49 62
e 49 80
e 49 130
e 49 131
e 49 132
e 49 135
e 49 138
e 49 139
e 50 61
e 50 62
e 50 80
e 50 141
e 50 148
e 50 149
e 50 150
e 50 151
e 50 152
e 50 153
e 51 52
e 51 53
e 51 61
e 51 62
e 51 80
e 51 122
e 51 123
e 51 124
e 51 125
e 51 126
e 51 127
e 51 128
e 51 129
e 52 53
e 52 61
e 52 62
e 52 80
e 52 122
e 52 123
e 52 124
e 52 125
e 52 126
e 52 127
e 52 128
e 52 129
e 53 61
e 53 62
e 53 80
e 53 122
e 53 124
e 53 126
e 53 127
e 53 128
e 53 129
e 54 61
e 54 62
e 54 80
e 54 113
e 54 115
e 54 116
e 54 117
e 54 118
e 54 119
e 54 120
e 54 121
e 55 56
e 55 57
e 55 58
e 55 59
e 55 60
e 55 63
e 55 64
e 55 65
e 55 71
e 55 72
e 55 73
e 55 74
e 55 75
e 55 76
e 55 78
e 55 79
e 55 83
e 55 84
e 55 85
e 55 86
e 55 87
e 55 88
e 55 89
e 55 90
e 55 91
e 55 108
e 55 109
e 55 110
e 55 111
e 56 57
e 56 58
e 56 59
e 56 60
e 56 63
e 56 64
e 56 65
e 56 71
e 56 72
e 56 73
e 56 74
e 56 75
e 56 76
e 56 78
e 56 79
e 56 83
e 56 84
e 56 85
e 56 86
e 56 87
e 56 88
e 56 89
e 56 90
e 56 91
e 56 108
e 56 109
e 56 110
e 56 111
e 57 58
e 57 59
e 57 60
e 57 63
e 57 64
e 57 65
e 57 71
e 57 72
e 57 73
e 57 74
e 57 75
e 57 76
e 57 78
e 57 79
e 57 83
e 57 84
e 57 85
e 57 86
e 57 87
e 57 88
e 57 89
e 57 90
e 57 91
e 57 108
e 57 109
e 57 110
e 57 111
e 58 59
e 58 60
e 58 63
e 58 64
e 58 65
e 58 71
e 58 72
e 58 73
e 58 74
e 58 75
e 58 76
e 58 78
e 58 79
e 58 83
e 58 84
e 58 85
e 58 86
e 58 87
e 58 88
e 58 89
e 58 90
e 58 91
e 58 108
e 58 109
e 58 110
e 58 111
e 59 60
e 59 63
e 59 64
e 59 65
e 59 71
e 59 72
e 59 73
e 59 74
e 59 75
e 59 76
e 59 78
e 59 79
e 59 83
e 59 84
e 59 85
e 59 86
e 59 87
e 59 88
e 59 89
e 59 90
e 59 91
e 59 108
e 59 109
e 59 110
e 59 111
e 60 63
e 60 64
e 60 65
e 60 71
e 60 72
e 60 73
e 60 74
e 60 75
e 60 76
e 60 78
e 60 79
e 60 83
e 60 84
e 60 85
e 60 86
e 60 87
e 60 88
e 60 89
e 60 90
e 60 91
e 61 62
e 61 66
e 61 67
e 61 68
e 61 69
e 61 70
e 61 77
e 61 80
e 61 81
e 61 82
e 61 92
e 61 93
e 61 94
e 61 95
e 61 96
e 61 97
e 61 98
e 61 99
e 61 100
e 61 101
e 61 102
e 61 103
e 61 104
e 61 105
e 61 106
e 61 107
e 61 112
e 61 113
e 61 114
e 61 115
e 61 116
e 61 117
e 61 118
e 61 119
e 61 120
e 61 121
e 61 122
e 61 123
e 61 124
e 61 125
e 61 126
e 61 127
e 61 128
e 61 129
e 61 130
e 61 131
e 61 132
e 61 133
e 61 134
e 61 135
e 61 136
e 61 137
e 61 138
e 61 139
e 61 140
e 61 141
e 61 142
e 61 143
e 61 144
e 61 145
e 61 146
e 61 147
e 61 148
e 61 149
e 61 150
e 61 151
e 61 152
e 61 153
e 61 154
e 61 155
e 61 156
e 61 157
e 61 158
e 61 159
e 62 66
e 62 67
e 62 68
e 62 69
e 62 70
e 62 77
e 62 80
e 62 81
e 62 82
e 62 92
e 62 93
e 62 94
e 62 95
e 62 96
e 62 97
e 62 98
e 62 99
e 62 100
e 62 101
e 62 102
e 62 103
e 62 104
e 62 105
e 62 106
e 62 107
e 62 112
e 62 113
e 62 114
e 62 115
e 62 116
e 62 117
e 62 118
e 62 119
e 62 120
e 62 121
e 62 122
e 62 123
e 62 124
e 62 125
e 62 126
e 62 127
e 62 128
e 62 129
e 62 130
e 62 131
e 62 132
e 62 133
e 62 134
e 62 135
e 62 136
e 62 137
e 62 138
e 62 139
e 62 140
e 62 141
e 62 142
e 62 143
e 62 144
e 62 145
e 62 146
e 62 147
e 62 148
e 62 149
e 62 150
e 62 151
e 62 152
e 62 153
e 62 154
e 62 155
e 62 156
e 62 157
e 62 158
e 62 159
e 63 64
e 63 65
e 63 71
e 63 72
e 63 73
e 63 74
e 63 75
e 63 76
e 63 78
e 63 79
e 63 83
e 63 84
e 63 85
e 63 86
e 63 87
e 63 88
e 63 89
e 63 90
e 63 91
e 64 65
e 64 71
e 64 72
e 64 73
e 64 74
e 64 75
e 64 76
e 65 71
e 65 72
e 65 73
e 65 74
e 65 75
e 65 76
e 66 67
e 66 68
e 66 69
e 66 70
e 66 77
e 67 68
e 67 69
e 67 70
e 67 77
e 68 69
e 68 70
e 68 77
e 69 70
e 69 77
e 70 77
e 71 72
e 71 73
e 71 74
e 71 75
e 71 76
e 72 73
e 72 74
e 72 75
e 72 76
e 73 74
e 73 75
e 73 76
e 74 75
e 74 76
e 75 76
e 78 79
e 78 83
e 78 84
e 78 85
e 78 86
e 78 87
e 78 88
e 78 89
e 78 90
e 78 91
e 79 83
e 79 84
e 79 85
e 79 86
e 79 87
e 79 88
e 79 89
e 79 90
e 79 91
e 80 81
e 80 82
e 80 92
e 80 93
e 80 94
e 80 95
e 80 96
e 80 97
e 80 98
e 80 99
e 80 100
e 80 101
e 80 102
e 80 103
e 80 104
e 80 105
e 80 106
e 80 107
e 80 112
e 80 113
e 80 114
e 80 115
e 80 116
e 80 117
e 80 118
e 80 119
e 80 120
e 80 121
e 80 122
e 80 123
e 80 124
e 80 125
e 80 126
e 80 127
e 80 128
e 80 129
e 80 130
e 80 131
e 80 132
e 80 133
e 80 134
e 80 135
e 80 136
e 80 137
e 80 138
e 80 139
e 80 140
e 80 141
e 80 142
e 80 143
e 80 144
e 80 145
e 80 146
e 80 147
e 80 148
e 80 149
e 80 150
e 80 151
e 80 152
e 80 153
e 80 154
e 80 155
e 80 156
e 80 157
e 80 158
e 80 159
e 81 82
e 81 92
e 81 93
e 81 94
e 81 95
e 81 96
e 81 97
e 82 92
e 82 93
e 82 94
e 82 95
e 83 84
e 83 85
e 83 86
e 83 87
e 83 88
e 83 89
e 84 85
e 84 86
e 84 87
e 85 86
e 85 87
e 85 88
e 85 89
e 85 90
e 85 91
e 86 87
e 86 88
e 86 89
e 86 90
e 86 91
e 88 89
e 88 90
e 88 91
e 90 91
e 92 93
e 92 94
e 92 95
e 92 96
e 92 97
e 93 94
e 93 95
e 94 95
e 94 96
e 94 97
e 95 96
e 95 97
e 96 97
e 98 99
e 98 100
e 98 101
e 98 102
e 98 103
e 98 104
e 98 105
e 98 106
e 98 107
e 99 100
e 99 101
e 99 102
e 99 103
e 99 104
e 99 105
e 99 106
e 99 107
e 100 101
e 100 102
e 100 103
e 100 104
e 100 105
e 100 106
e 100 107
e 101 102
e 101 103
e 101 104
e 101 105
e 101 106
e 101 107
e 102 103
e 102 104
e 103 104
e 105 106
e 105 107
e 106 107
e 108 109
e 108 110
e 108 111
e 109 110
e 109 111
e 110 111
e 112 113
e 112 114
e 112 115
e 112 116
e 112 117
e 112 118
e 112 119
e 113 114
e 113 115
e 113 116
e 113 117
e 113 118
e 113 119
e 113 120
e 113 121
e 114 115
e 114 116
e 114 117
e 114 118
e 114 119
e 115 116
e 115 117
e 115 118
e 115 119
e 115 120
e 115 121
e 116 117
e 116 118
e 116 119
e 116 120
e 116 121
e 117 118
e 117 119
e 117 120
e 117 121
e 118 119
e 118 120
e 118 121
e 119 120
e 119 121
e 120 121
e 122 123
e 122 124
e 122 125
e 122 126
e 122 127
e 122 128
e 122 129
e 123 124
e 123 125
e 123 126
e 123 127
e 124 125
e 124 126
e 124 127
e 124 128
e 124 129
e 125 126
e 125 127
e 126 127
e 126 128
e 126 129
e 127 128
e 127 129
e 128 129
e 130 131
e 130 132
e 130 133
e 130 134
e 130 135
e 130 136
e 130 137
e 130 138
e 130 139
e 130 140
e 130 141
e 130 142
e 130 143
e 130 144
e 130 145
e 130 146
e 130 147
e 131 132
e 131 133
e 131 134
e 131 135
e 131 136
e 131 137
e 131 138
e 131 139
e 131 140
e 131 141
e 131 142
e 131 143
e 132 133
e 132 134
e 132 135
e 132 136
e 132 137
e 132 138
e 132 139
e 133 134
e 135 136
e 135 137
e 135 138
e 135 139
e 136 137
e 138 139
e 140 141
e 140 142
e 140 143
e 140 144
e 140 145
e 140 146
e 141 142
e 141 143
e 141 144
e 141 145
e 141 146
e 141 147
e 141 148
e 141 149
e 141 150
e 141 151
e 141 152
e 141 153
e 142 143
e 144 145
e 144 146
e 144 147
e 144 148
e 145 146
e 147 148
e 147 149
e 148 149
e 149 150
e 149 151
e 149 152
e 149 153
e 150 151
e 152 153
e 154 155
e 154 156
e 154 157
e 154 158
e 154 159
e 155 156
e 155 157
e 155 158
e 155 159
e 156 157
e 156 158
e 156 159
e 157 158
e 157 159
e 158 159
